NProcShared=16
#n B3LYP/6-31G(d) Opt Freq

 cno5_5.xyz.out

0  1
C         -1.47275        0.89862       -0.10310
C          0.04358        0.91619       -0.09963
C          0.58133       -0.48000       -0.23659
N          1.32653       -0.99507        0.68682
O          1.69606       -2.28803        0.30060
H         -1.86600        1.91461       -0.00036
H         -1.86109        0.29341        0.72271
H         -1.85907        0.47480       -1.03626
H          0.41620        1.36911        0.82499
H          0.41138        1.50423       -0.94663
H          0.32300       -1.03432       -1.15617
H          2.26084       -2.57353        1.04363

