NProcShared=16
#n B3LYP/6-31G(d) Opt Freq

 cno5_1.xyz.out

0  1
C         -0.19094       -1.03692       -0.04654
C         -0.64803        0.38805        0.10010
C          0.65722        1.05382       -0.08224
N          1.69120        0.28905       -0.00737
O          1.21296       -1.02195        0.23137
H         -0.33984       -1.41066       -1.06534
H         -0.69740       -1.70826        0.65281
H         -1.02940        0.61568        1.09887
H         -1.37552        0.68998       -0.65543
H          0.71975        2.14123       -0.22624

